n = 4;
puzzle = 
[|BLACK, BLACK, UNKNOWN, UNKNOWN, WHITE, UNKNOWN, WHITE, UNKNOWN,
 |UNKNOWN, UNKNOWN, UNKNOWN, WHITE, UNKNOWN, UNKNOWN, UNKNOWN, UNKNOWN,
 |UNKNOWN, WHITE, UNKNOWN, UNKNOWN, UNKNOWN, UNKNOWN, WHITE, UNKNOWN,
 |UNKNOWN, WHITE, UNKNOWN, WHITE, UNKNOWN, BLACK, UNKNOWN, UNKNOWN,
 |WHITE, UNKNOWN, UNKNOWN, UNKNOWN, WHITE, UNKNOWN, UNKNOWN, WHITE,
 |UNKNOWN, BLACK, BLACK, UNKNOWN, UNKNOWN, UNKNOWN, UNKNOWN, UNKNOWN,
 |UNKNOWN, UNKNOWN, UNKNOWN, UNKNOWN, UNKNOWN, UNKNOWN, BLACK, UNKNOWN,
 |UNKNOWN, UNKNOWN, UNKNOWN, UNKNOWN, UNKNOWN, WHITE, UNKNOWN, UNKNOWN|];
